N = 11;
H = 6;
T = 2;

avail = array3d(1..N, 1..H, 1..T, [1, 2, 3, 9, 6, 2, 1, 1, 2, 0, 4, 9, 8, 6, 3, 9, 3, 5, 4, 2, 8, 2, 5, 7, 8, 3, 1, 0, 7, 1, 2, 5, 7, 1, 3, 10, 5, 7, 7, 3, 4, 7, 10, 0, 4, 7, 2, 4, 0, 4, 5, 0, 0, 6, 6, 2, 0, 9, 1, 4, 4, 5, 1, 6, 0, 2, 9, 3, 2, 9, 0, 10, 9, 8, 6, 2, 1, 6, 2, 10, 0, 9, 10, 8, 8, 10, 7, 4, 5, 1, 9, 5, 7, 9, 1, 9, 6, 4, 9, 7, 8, 2, 8, 4, 3, 3, 5, 9, 3, 3, 5, 8, 7, 5, 3, 0, 8, 6, 3, 6, 2, 10, 9, 1, 3, 1, 4, 4, 0, 3, 9, 2]);

r = array2d(1..H, 1..T, [3, 0, 1, 0, 4, 2, 3, 3, 3, 0, 5, 5]);
